32      4       
17      18      17      11      
0       0       0       0       0       1       2       
8       0       0       15      6       1       3       
9       4       0       0       7       1       4       
7       0       18      17      0       2       31      5       
3       0       5       0       9       2       30      6       
8       17      0       7       0       2       29      7       
5       0       13      0       11      1       8       
4       17      0       0       1       1       9       
6       11      18      0       0       1       10      
4       0       11      13      0       1       11      
5       0       12      0       11      1       12      
3       0       9       17      0       1       13      
2       14      0       10      0       1       14      
1       11      0       0       8       2       28      15      
7       17      16      0       0       2       27      16      
5       17      18      0       0       1       17      
7       10      0       15      0       2       26      18      
6       0       14      7       0       1       19      
9       0       8       5       0       1       20      
10      16      18      0       0       1       21      
3       0       0       15      11      1       22      
8       0       0       12      11      1       23      
7       0       0       17      4       1       24      
5       7       13      0       0       1       25      
5       0       0       17      11      1       32      
7       6       0       11      0       1       32      
8       16      0       0       10      1       32      
1       0       12      13      0       1       32      
5       0       18      0       8       1       32      
1       15      0       0       10      1       32      
1       13      0       0       6       1       32      
0       0       0       0       0       0       
